Name:		mgval_0.40_3B
Optimal value:	110
#Vehicles:	3
Capacity:	50
Depot Node:	1
#Nodes:		24
#Edges:		16
#Arcs:		29
#Required N:	14
#Required E:	9
#Required A:	17

ReN.	DEMAND	S. COST
N2	4	4
N4	2	2
N5	9	9
N7	3	3
N9	3	3
N11	2	2
N12	2	2
N13	1	1
N15	7	7
N18	6	6
N19	2	2
N21	2	2
N22	4	4
N24	2	2

ReE.	FROM N.	TO N.	T. COST	DEMAND	S. COST
E8	19	22	3	7	7
E9	7	8	1	6	6
E10	2	4	1	3	3
E11	10	11	3	5	5
E12	5	11	4	4	4
E13	16	17	4	4	4
E14	23	24	1	5	5
E15	20	23	1	4	4
E16	10	20	2	4	4

EDGE	FROM N.	TO N.	T. COST
NrE1	5	6	3
NrE2	12	16	1
NrE3	5	10	2
NrE4	19	20	1
NrE5	1	2	2
NrE6	9	10	2
NrE7	15	21	1

ReA.	FROM N.	TO N.	T. COST	DEMAND	S. COST
A13	6	12	1	3	3
A14	14	18	3	3	3
A15	8	14	3	3	3
A16	15	11	1	2	2
A17	3	1	1	2	2
A18	21	24	1	1	1
A19	14	8	3	4	4
A20	11	12	1	3	3
A21	1	3	1	1	1
A22	3	9	1	1	1
A23	17	13	3	5	5
A24	3	4	2	2	2
A25	13	14	2	4	4
A26	5	4	2	6	6
A27	20	21	2	2	2
A28	6	7	3	2	2
A29	19	9	1	2	2

ARC	FROM N.	TO N.	T. COST
NrA1	13	12	1
NrA2	22	23	3
NrA3	11	15	1
NrA4	9	19	1
NrA5	21	20	2
NrA6	7	6	3
NrA7	18	17	1
NrA8	12	13	1
NrA9	15	16	1
NrA10	18	14	3
NrA11	24	21	1
NrA12	4	3	2
